Sun 20 May 08:58:22 CEST 2018
CPXPARAM_TimeLimit                               45
CPXPARAM_Threads                                 4
CPXPARAM_MIP_Strategy_CallbackReducedLP          0
Tried aggregator 4 times.
MIP Presolve eliminated 3613 rows and 3930 columns.
MIP Presolve modified 4712 coefficients.
Aggregator did 11428 substitutions.
Reduced MIP has 10854 rows, 8009 columns, and 23666 nonzeros.
Reduced MIP has 7337 binaries, 10 generals, 0 SOSs, and 779 indicators.
Presolve time = 0.15 sec. (310.91 ticks)
Probing changed sense of 170 constraints.
Probing time = 0.18 sec. (86.02 ticks)
Tried aggregator 3 times.
MIP Presolve eliminated 3408 rows and 618 columns.
MIP Presolve modified 666 coefficients.
Aggregator did 4867 substitutions.
Reduced MIP has 2579 rows, 2524 columns, and 9864 nonzeros.
Reduced MIP has 2130 binaries, 394 generals, 0 SOSs, and 779 indicators.
Presolve time = 0.03 sec. (31.35 ticks)
Probing time = 0.06 sec. (45.25 ticks)
Cover probing fixed 0 vars, tightened 6 bounds.
Tried aggregator 3 times.
MIP Presolve modified 10 coefficients.
Aggregator did 660 substitutions.
Reduced MIP has 1919 rows, 1864 columns, and 8544 nonzeros.
Reduced MIP has 1470 binaries, 394 generals, 0 SOSs, and 779 indicators.
Presolve time = 0.01 sec. (12.05 ticks)
Probing time = 0.05 sec. (40.04 ticks)
Tried aggregator 1 time.
Reduced MIP has 1919 rows, 1864 columns, and 8544 nonzeros.
Reduced MIP has 1470 binaries, 394 generals, 0 SOSs, and 779 indicators.
Presolve time = 0.01 sec. (7.18 ticks)
Probing time = 0.00 sec. (4.21 ticks)
Clique table members: 38086.
MIP emphasis: balance optimality and feasibility.
MIP search method: dynamic search.
Parallel mode: deterministic, using up to 4 threads.
Root relaxation solution time = 0.01 sec. (10.75 ticks)

        Nodes                                         Cuts/
   Node  Left     Objective  IInf  Best Integer    Best Bound    ItCnt     Gap

      0     0        6.0000   825                      6.0000      196         
*     0+    0                           36.0000        6.0000            83.33%
      0     0        6.0000   746       36.0000  Cliques: 579      387   83.33%
      0     0        6.0000   598       36.0000  Cliques: 579      919   83.33%
*     0+    0                           34.0000        6.0000            82.35%
      0     0        6.0000   436       34.0000  Cliques: 579     1082   73.53%
      0     0        cutoff             34.0000       34.0000     1694    0.00%
Elapsed time = 4.63 sec. (4376.89 ticks, tree = 0.01 MB, solutions = 2)

Clique cuts applied:  2124
Implied bound cuts applied:  1

Root node processing (before b&c):
  Real time             =    4.63 sec. (4377.94 ticks)
Parallel b&c, 4 threads:
  Real time             =    0.00 sec. (0.00 ticks)
  Sync time (average)   =    0.00 sec.
  Wait time (average)   =    0.00 sec.
                          ------------
Total (root+branch&cut) =    4.63 sec. (4377.94 ticks)
   | W
 L | 0 1 2 
----------
 0 | 2 2 2 
 1 | 2 2 2 
 2 | 2 2 2 
 3 | 2 2 2 
 4 | 2 2 2 
 5 | 2 2 2 
 6 | 3 3 3 
 7 | 3 3 3 
 8 | 3 3 3 
 9 | 3 3 3 
10 | 3 3 3 
11 | 3 3 3 
12 | 5 5 5 
13 | 5 5 5 
14 | 5 5 5 
15 | 5 5 5 
16 | 5 5 5 
17 | 5 5 5 
18 | 9 . 7 
19 | 9 1 7 
20 | . . 7 
21 | 8 8 7 
22 | 6 6 6 
23 | 6 6 6 
24 | 6 6 6 
25 | 6 6 6 
26 | 6 6 6 
27 | 6 6 6 
28 | 4 4 4 
29 | 4 4 4 
30 | 4 4 4 
31 | 4 4 4 
32 | 4 4 4 
33 | 4 4 4 
34 | . . . 
35 | . . . 
36 | . . . 
37 | . . . 
38 | . . . 

Boxes' corners:      (w,l)
    Box 1 is at 
        top left     (1,19)
        bottom right (1,19)

    Box 2 is at 
        top left     (0,0)
        bottom right (2,5)

    Box 3 is at 
        top left     (0,6)
        bottom right (2,11)

    Box 4 is at 
        top left     (0,28)
        bottom right (2,33)

    Box 5 is at 
        top left     (0,12)
        bottom right (2,17)

    Box 6 is at 
        top left     (0,22)
        bottom right (2,27)

    Box 7 is at 
        top left     (2,18)
        bottom right (2,21)

    Box 8 is at 
        top left     (0,21)
        bottom right (1,21)

    Box 9 is at 
        top left     (0,18)
        bottom right (0,19)

    Roll length used: 34
In 13.15 seconds
